sat
(:eliminated-vars              1
 :max-memory                   18.12
 :memory                       18.01
 :nlsat-conflicts              1
 :nlsat-irrational-assignments 2
 :nlsat-learned-added          1
 :nlsat-propagations           15
 :nlsat-stages                 5
 :num-allocs                   8449
 :rlimit-count                 3460
 :time                         0.00
 :total-time                   0.01)
